/* Conversion Maximization */

/* Objective function */
max: +0.0190594449784 C1 +0.00671416387367 C2 +0.00191835141537 C3 +0.00737767029045 C4;

/* Constraints */
+C1 +C2 +C3 +C4 <= 100000;
R2: +10.0859769672 C1 >= 100;
R3: +14.3361123789 C2 >= 100;
R4: +84.4436226459 C3 >= 100;
R5: +42.8406911143 C4 >= 100;
R6: +0.227260021734 C1 >= 500;
R7: +0.290088974171 C2 >= 500;
R8: +0.0365983748348 C3 >= 500;
R9: +0.481547300272 C4 >= 500;
R10: +0.0190594449784 C1 >= 100;
R11: +0.00671416387367 C1 >= 100;
R12: +0.00191835141537 C3 >= 100;
R13: +0.00737767029045 C4 >= 100;

/* Variable bounds */
C1 >= 10000;
C2 >= 10000;
C3 >= 10000;
C4 >= 10000;
